639,448
710,402
417,42
892,697
1162,161
672,465
838,891
721,326
769,420
611,-38
580,719
227,175
704,258
996,177
653,583
681,136
760,-97
850,237
830,112
1117,89
830,700
766,379
596,379
736,235
504,59
334,229
593,392
591,406
